n=8;
hearts=2;
clubs=31;
spades=51;
diamonds=50;
blocked=13;
m=array2d(1..n, 1..n,[
	_,5,5,5,_,_,4,_,
	_,_,_,_,_,_,_,_,
	_,_,_,_,_,_,1,_,
	_,_,_,_,_,_,_,5,
	5,_,_,_,_,5,_,5,
	_,_,_,_,_,5,_,5,
	_,_,_,_,_,5,_,_,
	5,_,5,_,_,_,5,_
]);
